10 5 5 6 765
0.0 0.4 1.0 0.22 3.0 0.21 4.0 0.45 2.0 0.28
4.0 0.3 2.0 0.44 0.0 0.47 1.0 0.24 3.0 0.38
1.0 0.41 3.0 0.25 2.0 0.39 4.0 0.39 0.0 0.35
2.0 0.17 3.0 0.41 0.0 0.19 4.0 0.25 1.0 0.35
4.0 0.19 3.0 0.47 0.0 0.48 1.0 0.2 2.0 0.46
3.0 0.5 4.0 0.42 1.0 0.45 0.0 0.3 2.0 0.36
3.0 0.19 1.0 0.3 2.0 0.15 0.0 0.45 4.0 0.5
1.0 0.42 3.0 0.46 4.0 0.18 2.0 0.46 0.0 0.29
2.0 0.16 4.0 0.28 0.0 0.21 1.0 0.44 3.0 0.22
1.0 0.16 2.0 0.23 3.0 0.27 0.0 0.35 4.0 0.49
